certificates/rado_a11_c74_N24.cnf
c Rad2 upper bound instance: x1 + 11*x2 - x3 = 74, interval [1,24]
p cnf 24 104
1 4 7 0
-1 -4 -7 0
1 8 15 0
-1 -8 -15 0
2 5 7 0
-2 -5 -7 0
2 8 16 0
-2 -8 -16 0
3 6 7 0
-3 -6 -7 0
3 8 17 0
-3 -8 -17 0
4 7 0
-4 -7 0
4 8 18 0
-4 -8 -18 0
5 7 8 0
-5 -7 -8 0
5 8 19 0
-5 -8 -19 0
6 7 9 0
-6 -7 -9 0
6 8 20 0
-6 -8 -20 0
7 10 0
-7 -10 0
7 8 21 0
-7 -8 -21 0
7 8 11 0
-7 -8 -11 0
8 22 0
-8 -22 0
1 6 9 0
-1 -6 -9 0
7 9 12 0
-7 -9 -12 0
8 9 23 0
-8 -9 -23 0
2 6 10 0
-2 -6 -10 0
7 10 13 0
-7 -10 -13 0
8 10 24 0
-8 -10 -24 0
3 6 11 0
-3 -6 -11 0
7 11 14 0
-7 -11 -14 0
4 6 12 0
-4 -6 -12 0
7 12 15 0
-7 -12 -15 0
5 6 13 0
-5 -6 -13 0
7 13 16 0
-7 -13 -16 0
6 14 0
-6 -14 0
7 14 17 0
-7 -14 -17 0
6 7 15 0
-6 -7 -15 0
7 15 18 0
-7 -15 -18 0
6 8 16 0
-6 -8 -16 0
7 16 19 0
-7 -16 -19 0
6 9 17 0
-6 -9 -17 0
7 17 20 0
-7 -17 -20 0
6 10 18 0
-6 -10 -18 0
7 18 21 0
-7 -18 -21 0
6 11 19 0
-6 -11 -19 0
7 19 22 0
-7 -19 -22 0
1 5 20 0
-1 -5 -20 0
6 12 20 0
-6 -12 -20 0
7 20 23 0
-7 -20 -23 0
2 5 21 0
-2 -5 -21 0
6 13 21 0
-6 -13 -21 0
7 21 24 0
-7 -21 -24 0
3 5 22 0
-3 -5 -22 0
6 14 22 0
-6 -14 -22 0
4 5 23 0
-4 -5 -23 0
6 15 23 0
-6 -15 -23 0
5 24 0
-5 -24 0
6 16 24 0
-6 -16 -24 0
