certificates/rado_a11_c74_N24.drat
-22 5 0
-24 0
5 0
22 0
-8 0
-3 0
10 0
17 0
-7 0
4 0
21 0
11 0
6 0
-23 0
-2 0
-13 0
-19 0
-12 0
-14 0
-9 0
-18 0
20 0
0
